!  H3  energy calculation  
!
 $CONTRL SCFTYP=ROHF CITYP=GUGA RUNTYP=ENERGY EXETYP=RUN MULT=2 $END
 $SYSTEM TIMLIM=3 MEMORY=300000 $END
 $BASIS  GBASIS=N311 NGAUSS=6 NPFUNC=2 $END
 $GUESS GUESS=HUCKEL $END
 $CIDRT GROUP=CS IEXCIT=3 NDOC=1 NALP=1 NVAL=25 $END
 $GUGDIA NSTATE=1 $END
 $DATA
Hydrogen...CI...6-311G** basis
CS 

Hydrogen 1.0  0.00   0.00   0.00
Hydrogen 1.0  _x1   0.00   0.00
Hydrogen 1.0  _x2   _y2   0.00 
$END

